CPXPARAM_Read_DataCheck                          1
Found incumbent of value 0.000000 after 0.00 sec. (0.26 ticks)
Tried aggregator 1 time.
MIP Presolve eliminated 2 rows and 0 columns.
MIP Presolve modified 1 coefficients.
Reduced MIP has 1031 rows, 10010 columns, and 48034 nonzeros.
Reduced MIP has 10010 binaries, 0 generals, 0 SOSs, and 0 indicators.
Presolve time = 0.03 sec. (18.40 ticks)
Tried aggregator 1 time.
Reduced MIP has 1031 rows, 10010 columns, and 48034 nonzeros.
Reduced MIP has 10010 binaries, 0 generals, 0 SOSs, and 0 indicators.
Presolve time = 0.03 sec. (20.77 ticks)
Probing time = 0.02 sec. (8.28 ticks)
Clique table members: 34077.
MIP emphasis: balance optimality and feasibility.
MIP search method: dynamic search.
Parallel mode: deterministic, using up to 4 threads.
Root relaxation solution time = 0.09 sec. (84.30 ticks)

        Nodes                                         Cuts/
   Node  Left     Objective  IInf  Best Integer    Best Bound    ItCnt     Gap

*     0+    0                            0.0000    61462.0000              --- 
*     0+    0                        17108.0000    61462.0000           259.26%
      0     0    35218.7080    10    17108.0000    35218.7080     1964  105.86%
*     0+    0                        19546.0000    35218.7080            80.18%
*     0+    0                        20205.0000    35218.7080            74.31%
      0     0    35177.7150    10    20205.0000  Cliques: 357     1999   29.34%
*     0+    0                        20206.0000    26132.8993            29.33%
      0     0        cutoff          20206.0000    20206.0000     2014    0.00%
Elapsed time = 3.22 sec. (1468.22 ticks, tree = 0.01 MB, solutions = 5)

Clique cuts applied:  711
Implied bound cuts applied:  1

Root node processing (before b&c):
  Real time             =    3.22 sec. (1469.06 ticks)
Parallel b&c, 4 threads:
  Real time             =    0.00 sec. (0.00 ticks)
  Sync time (average)   =    0.00 sec.
  Wait time (average)   =    0.00 sec.
                          ------------
Total (root+branch&cut) =    3.22 sec. (1469.06 ticks)
